(set-logic QF_SLIA)
(set-option :produce-models true)
(declare-const X String)
; Host\u{3a}\w+Pre.*Keyloggeradfsgecoiwnfhirmvtg\u{2f}ggqh\.kqh
(assert (str.in_re X (re.++ (str.to_re "Host:") (re.+ (re.union (re.range "0" "9") (re.range "A" "Z") (re.range "a" "z") (str.to_re "_"))) (str.to_re "Pre") (re.* re.allchar) (str.to_re "Keyloggeradfsgecoiwnf\u{1b}hirmvtg/ggqh.kqh\u{1b}\u{0a}"))))
; ^([a-zA-Z]{5})([a-zA-Z0-9-]{3,12})
(assert (not (str.in_re X (re.++ ((_ re.loop 5 5) (re.union (re.range "a" "z") (re.range "A" "Z"))) ((_ re.loop 3 12) (re.union (re.range "a" "z") (re.range "A" "Z") (re.range "0" "9") (str.to_re "-"))) (str.to_re "\u{0a}")))))
; Host\x3A[^\n\r]*cache\x2Eeverer\x2Ecom\s+from\.myway\.comToolbar
(assert (str.in_re X (re.++ (str.to_re "Host:") (re.* (re.union (str.to_re "\u{0a}") (str.to_re "\u{0d}"))) (str.to_re "cache.everer.com") (re.+ (re.union (str.to_re " ") (str.to_re "\u{09}") (str.to_re "\u{0a}") (str.to_re "\u{0c}") (str.to_re "\u{0d}"))) (str.to_re "from.myway.com\u{1b}Toolbar\u{0a}"))))
; X-Mailer\u{3a}User-Agent\x3A
(assert (not (str.in_re X (str.to_re "X-Mailer:\u{13}User-Agent:\u{0a}"))))
(check-sat)
